(set-logic ALL)
(declare-fun var0 () String)
(assert (str.in_re var0 (re.++ (re.union (re.+ (str.to_re "0")) (re.+ (str.to_re "111"))) (re.++ (re.+ (re.+ (str.to_re "2"))) (re.++ (re.* (re.* (str.to_re "3"))) (re.++ (re.+ (re.* (str.to_re "444"))) (re.++ (re.* (re.+ (str.to_re "5"))) (re.++ (re.+ (re.union (str.to_re "66") (str.to_re "7"))) (re.++ (re.+ (re.union (str.to_re "8") (str.to_re "9"))) (re.++ (re.+ (re.+ (str.to_re "aaa"))) (re.++ (re.* (re.+ (str.to_re "bb"))) (re.++ (re.union (re.+ (str.to_re "cc")) (re.+ (str.to_re "ddd"))) (re.++ (re.union (re.union (str.to_re "ee") (str.to_re "ff")) (re.union (str.to_re "ggg") (str.to_re "hh"))) (re.++ (re.* (re.union (str.to_re "iii") (str.to_re "j"))) (re.++ (re.+ (re.+ (str.to_re "kk"))) (re.++ (re.union (re.* (str.to_re "l")) (re.* (str.to_re "m"))) (re.++ (re.union (re.* (str.to_re "nn")) (re.* (str.to_re "o"))) (re.++ (re.* (re.+ (str.to_re "ppp"))) (re.++ (re.* (re.* (str.to_re "qqq"))) (re.++ (re.union (re.+ (str.to_re "rrr")) (re.+ (str.to_re "s"))) (re.++ (re.+ (re.union (str.to_re "t") (str.to_re "u"))) (re.++ (re.+ (re.* (str.to_re "vv"))) (re.+ (re.* (str.to_re "ww")))))))))))))))))))))))))
(assert (not (str.in_re var0 (re.++ (re.+ (re.union (str.to_re "0") (str.to_re "11"))) (re.++ (re.union (re.union (str.to_re "2") (str.to_re "333")) (re.union (str.to_re "4") (str.to_re "5"))) (re.++ (re.+ (re.* (str.to_re "6"))) (re.++ (re.union (re.+ (str.to_re "7")) (re.+ (str.to_re "8"))) (re.++ (re.* (re.+ (str.to_re "99"))) (re.++ (re.+ (re.+ (str.to_re "a"))) (re.++ (re.union (re.union (str.to_re "bb") (str.to_re "c")) (re.union (str.to_re "ddd") (str.to_re "ee"))) (re.++ (re.* (re.union (str.to_re "f") (str.to_re "g"))) (re.++ (re.* (re.union (str.to_re "hhh") (str.to_re "i"))) (re.++ (re.* (re.+ (str.to_re "j"))) (re.++ (re.* (re.+ (str.to_re "kkk"))) (re.++ (re.* (re.* (str.to_re "l"))) (re.++ (re.union (re.+ (str.to_re "m")) (re.+ (str.to_re "nnn"))) (re.++ (re.union (re.+ (str.to_re "ooo")) (re.+ (str.to_re "p"))) (re.++ (re.union (re.* (str.to_re "q")) (re.* (str.to_re "r"))) (re.++ (re.+ (re.+ (str.to_re "s"))) (re.++ (re.+ (re.union (str.to_re "t") (str.to_re "u"))) (re.++ (re.* (re.* (str.to_re "v"))) (re.++ (re.+ (re.+ (str.to_re "w"))) (re.++ (re.union (re.* (str.to_re "xx")) (re.* (str.to_re "yy"))) (re.* (re.+ (str.to_re "z"))))))))))))))))))))))))))
(check-sat)